-386.0 2.0 6.0 5.0 1.0 0.0 8.0 9.0 0.0 0.0 0.0 3.0 9.0 4.0 7.0 6.0 9.0 7.0 3.0 10.0 1.0 7.0 1.0 8.0 2.0 5.0 6.0 2.0 6.0 5.0 3.0 7.0 6.0 8.0 1.0 0.0 3.0 8.0 7.0 8.0 2.0 8.0 2.0 1.0 0.0 2.0 3.0 10.0 9.0 7.0 2.0 6.0 10.0 7.0 0.0 2.0 5.0 8.0 5.0 2.0 5.0 4.0 10.0 10.0 10.0 4.0 4.0 9.0 6.0 4.0 9.0 6.0 4.0 6.0 2.0 4.0 8.0 3.0 4.0 
2.0 -400.0 1.0 7.0 3.0 10.0 6.0 2.0 3.0 2.0 2.0 4.0 3.0 5.0 7.0 4.0 2.0 1.0 10.0 6.0 8.0 5.0 9.0 4.0 2.0 2.0 5.0 3.0 2.0 9.0 10.0 5.0 5.0 9.0 10.0 1.0 1.0 6.0 7.0 7.0 7.0 4.0 8.0 4.0 7.0 4.0 10.0 10.0 9.0 3.0 8.0 10.0 2.0 6.0 2.0 9.0 8.0 6.0 6.0 3.0 5.0 10.0 9.0 9.0 2.0 7.0 4.0 5.0 5.0 7.0 6.0 5.0 6.0 4.0 0.0 0.0 0.0 0.0 0.0 
6.0 1.0 -400.0 5.0 3.0 6.0 6.0 0.0 10.0 6.0 8.0 7.0 3.0 3.0 6.0 6.0 8.0 6.0 1.0 2.0 7.0 10.0 10.0 6.0 3.0 1.0 5.0 3.0 7.0 3.0 9.0 0.0 7.0 4.0 2.0 1.0 7.0 3.0 7.0 9.0 3.0 9.0 4.0 7.0 9.0 5.0 1.0 7.0 7.0 4.0 5.0 9.0 2.0 3.0 7.0 9.0 1.0 7.0 4.0 5.0 5.0 2.0 5.0 9.0 9.0 9.0 1.0 9.0 4.0 4.0 2.0 5.0 9.0 0.0 5.0 1.0 5.0 7.0 4.0 
5.0 7.0 5.0 -450.0 1.0 0.0 6.0 6.0 8.0 3.0 9.0 1.0 8.0 6.0 2.0 10.0 3.0 10.0 8.0 4.0 1.0 2.0 4.0 8.0 4.0 8.0 0.0 10.0 9.0 7.0 7.0 6.0 2.0 9.0 6.0 4.0 10.0 7.0 1.0 9.0 5.0 10.0 10.0 7.0 8.0 0.0 9.0 0.0 6.0 6.0 6.0 10.0 9.0 0.0 1.0 7.0 5.0 5.0 2.0 10.0 6.0 10.0 1.0 8.0 8.0 6.0 9.0 3.0 5.0 0.0 5.0 3.0 9.0 4.0 10.0 2.0 10.0 10.0 9.0 
1.0 3.0 3.0 1.0 -370.0 5.0 7.0 4.0 1.0 9.0 8.0 4.0 5.0 3.0 5.0 5.0 5.0 9.0 6.0 6.0 2.0 10.0 6.0 4.0 0.0 5.0 10.0 5.0 0.0 8.0 6.0 0.0 3.0 7.0 2.0 9.0 2.0 7.0 7.0 6.0 0.0 5.0 2.0 4.0 8.0 0.0 6.0 0.0 1.0 10.0 8.0 0.0 7.0 5.0 4.0 4.0 2.0 1.0 4.0 10.0 10.0 1.0 9.0 6.0 0.0 9.0 3.0 1.0 0.0 0.0 3.0 9.0 7.0 4.0 10.0 3.0 9.0 7.0 9.0 
0.0 10.0 6.0 0.0 5.0 -421.0 2.0 7.0 9.0 9.0 7.0 9.0 9.0 2.0 4.0 7.0 6.0 6.0 10.0 10.0 0.0 7.0 4.0 2.0 5.0 2.0 1.0 6.0 6.0 5.0 8.0 10.0 1.0 1.0 5.0 9.0 5.0 7.0 0.0 7.0 2.0 5.0 0.0 6.0 7.0 3.0 4.0 7.0 1.0 8.0 5.0 2.0 10.0 10.0 6.0 10.0 9.0 5.0 6.0 1.0 10.0 8.0 4.0 3.0 3.0 10.0 10.0 2.0 3.0 6.0 3.0 6.0 10.0 0.0 9.0 2.0 6.0 1.0 9.0 
8.0 6.0 6.0 6.0 7.0 2.0 -385.0 3.0 5.0 7.0 3.0 4.0 9.0 0.0 5.0 2.0 1.0 1.0 8.0 5.0 9.0 10.0 1.0 8.0 0.0 6.0 4.0 4.0 6.0 6.0 10.0 10.0 2.0 5.0 7.0 2.0 8.0 4.0 8.0 2.0 1.0 1.0 0.0 8.0 5.0 4.0 3.0 4.0 7.0 2.0 0.0 6.0 5.0 0.0 10.0 3.0 8.0 5.0 1.0 9.0 5.0 1.0 1.0 7.0 8.0 2.0 10.0 9.0 4.0 2.0 9.0 2.0 6.0 6.0 9.0 4.0 2.0 9.0 7.0 
9.0 2.0 0.0 6.0 4.0 7.0 3.0 -376.0 6.0 10.0 5.0 9.0 1.0 5.0 3.0 1.0 5.0 4.0 1.0 4.0 4.0 6.0 4.0 2.0 6.0 5.0 9.0 0.0 6.0 0.0 0.0 1.0 8.0 8.0 9.0 1.0 8.0 6.0 5.0 2.0 7.0 1.0 2.0 10.0 10.0 1.0 2.0 5.0 10.0 7.0 8.0 0.0 4.0 9.0 1.0 7.0 3.0 1.0 3.0 8.0 9.0 8.0 9.0 2.0 4.0 2.0 3.0 8.0 7.0 10.0 8.0 6.0 0.0 7.0 3.0 3.0 8.0 0.0 5.0 
0.0 3.0 10.0 8.0 1.0 9.0 5.0 6.0 -349.0 9.0 0.0 4.0 6.0 10.0 1.0 8.0 6.0 1.0 8.0 10.0 3.0 6.0 8.0 2.0 1.0 2.0 8.0 0.0 1.0 3.0 3.0 0.0 1.0 10.0 1.0 2.0 2.0 5.0 2.0 9.0 7.0 10.0 1.0 2.0 7.0 6.0 7.0 3.0 7.0 0.0 9.0 0.0 9.0 6.0 4.0 4.0 6.0 1.0 3.0 0.0 8.0 9.0 1.0 2.0 10.0 10.0 4.0 5.0 0.0 0.0 1.0 7.0 2.0 3.0 2.0 4.0 5.0 4.0 6.0 
0.0 2.0 6.0 3.0 9.0 9.0 7.0 10.0 9.0 -378.0 6.0 0.0 2.0 4.0 5.0 1.0 3.0 0.0 0.0 4.0 7.0 2.0 5.0 6.0 6.0 0.0 6.0 7.0 10.0 4.0 4.0 6.0 6.0 4.0 1.0 7.0 10.0 2.0 1.0 5.0 1.0 0.0 2.0 2.0 1.0 9.0 6.0 6.0 8.0 0.0 1.0 10.0 2.0 2.0 10.0 10.0 7.0 4.0 1.0 3.0 8.0 0.0 6.0 0.0 5.0 9.0 5.0 5.0 7.0 2.0 10.0 9.0 9.0 1.0 10.0 9.0 7.0 6.0 6.0 
0.0 2.0 8.0 9.0 8.0 7.0 3.0 5.0 0.0 6.0 -363.0 7.0 4.0 6.0 6.0 7.0 7.0 1.0 10.0 0.0 2.0 2.0 1.0 7.0 2.0 0.0 6.0 7.0 1.0 1.0 3.0 10.0 3.0 3.0 8.0 9.0 6.0 7.0 2.0 1.0 1.0 2.0 9.0 1.0 8.0 2.0 4.0 9.0 7.0 3.0 5.0 9.0 10.0 2.0 6.0 5.0 0.0 5.0 4.0 3.0 2.0 1.0 0.0 6.0 7.0 5.0 6.0 6.0 6.0 2.0 3.0 9.0 2.0 6.0 9.0 7.0 6.0 8.0 0.0 
3.0 4.0 7.0 1.0 4.0 9.0 4.0 9.0 4.0 0.0 7.0 -375.0 0.0 8.0 1.0 3.0 0.0 4.0 7.0 10.0 6.0 7.0 6.0 8.0 1.0 10.0 6.0 6.0 10.0 9.0 1.0 2.0 10.0 8.0 0.0 2.0 3.0 6.0 0.0 2.0 7.0 4.0 5.0 8.0 4.0 2.0 6.0 5.0 1.0 5.0 7.0 10.0 0.0 6.0 1.0 3.0 9.0 2.0 5.0 2.0 7.0 10.0 3.0 1.0 10.0 0.0 7.0 7.0 0.0 3.0 3.0 9.0 1.0 8.0 4.0 10.0 10.0 1.0 1.0 
9.0 3.0 3.0 8.0 5.0 9.0 9.0 1.0 6.0 2.0 4.0 0.0 -389.0 7.0 2.0 9.0 6.0 2.0 5.0 1.0 5.0 3.0 7.0 2.0 0.0 6.0 3.0 10.0 0.0 4.0 5.0 8.0 6.0 5.0 5.0 7.0 0.0 0.0 5.0 9.0 5.0 10.0 1.0 3.0 3.0 6.0 7.0 6.0 9.0 7.0 1.0 7.0 5.0 2.0 5.0 10.0 2.0 7.0 7.0 1.0 0.0 9.0 9.0 6.0 6.0 0.0 6.0 10.0 7.0 9.0 5.0 8.0 0.0 10.0 6.0 7.0 6.0 0.0 0.0 
4.0 5.0 3.0 6.0 3.0 2.0 0.0 5.0 10.0 4.0 6.0 8.0 7.0 -351.0 2.0 10.0 3.0 3.0 4.0 1.0 4.0 3.0 4.0 8.0 10.0 7.0 4.0 6.0 3.0 3.0 3.0 9.0 7.0 1.0 3.0 3.0 6.0 2.0 0.0 4.0 0.0 9.0 3.0 10.0 0.0 4.0 7.0 9.0 5.0 9.0 7.0 0.0 0.0 8.0 9.0 7.0 8.0 6.0 7.0 8.0 5.0 5.0 1.0 5.0 3.0 4.0 1.0 0.0 3.0 3.0 1.0 0.0 6.0 6.0 2.0 5.0 1.0 7.0 1.0 
7.0 7.0 6.0 2.0 5.0 4.0 5.0 3.0 1.0 5.0 6.0 1.0 2.0 2.0 -385.0 0.0 9.0 3.0 6.0 10.0 6.0 5.0 1.0 6.0 5.0 5.0 10.0 5.0 0.0 0.0 3.0 3.0 2.0 9.0 0.0 10.0 4.0 6.0 6.0 2.0 7.0 1.0 1.0 1.0 9.0 1.0 9.0 10.0 7.0 8.0 6.0 0.0 0.0 0.0 8.0 4.0 6.0 9.0 10.0 8.0 3.0 5.0 1.0 4.0 8.0 10.0 9.0 10.0 4.0 2.0 2.0 10.0 10.0 8.0 1.0 8.0 3.0 4.0 6.0 
6.0 4.0 6.0 10.0 5.0 7.0 2.0 1.0 8.0 1.0 7.0 3.0 9.0 10.0 0.0 -378.0 0.0 7.0 5.0 10.0 1.0 4.0 10.0 9.0 9.0 1.0 9.0 1.0 2.0 10.0 7.0 1.0 0.0 0.0 2.0 7.0 10.0 9.0 8.0 3.0 5.0 3.0 4.0 6.0 0.0 5.0 7.0 10.0 2.0 1.0 3.0 5.0 1.0 7.0 2.0 5.0 10.0 4.0 8.0 6.0 4.0 2.0 10.0 0.0 1.0 4.0 1.0 10.0 7.0 2.0 1.0 5.0 2.0 3.0 1.0 7.0 8.0 2.0 10.0 
9.0 2.0 8.0 3.0 5.0 6.0 1.0 5.0 6.0 3.0 7.0 0.0 6.0 3.0 9.0 0.0 -402.0 0.0 0.0 3.0 4.0 5.0 4.0 8.0 0.0 2.0 9.0 8.0 7.0 5.0 2.0 9.0 4.0 4.0 0.0 5.0 2.0 9.0 10.0 7.0 6.0 3.0 1.0 3.0 6.0 1.0 7.0 3.0 3.0 9.0 8.0 5.0 4.0 6.0 7.0 9.0 6.0 2.0 7.0 8.0 8.0 6.0 8.0 1.0 5.0 10.0 5.0 2.0 9.0 9.0 8.0 2.0 3.0 5.0 8.0 6.0 9.0 4.0 10.0 
7.0 1.0 6.0 10.0 9.0 6.0 1.0 4.0 1.0 0.0 1.0 4.0 2.0 3.0 3.0 7.0 0.0 -347.0 5.0 9.0 6.0 6.0 6.0 8.0 8.0 0.0 4.0 5.0 0.0 9.0 7.0 2.0 9.0 0.0 0.0 0.0 8.0 0.0 7.0 9.0 10.0 4.0 8.0 10.0 1.0 5.0 2.0 1.0 1.0 2.0 7.0 7.0 3.0 6.0 7.0 6.0 6.0 3.0 0.0 7.0 5.0 3.0 1.0 5.0 5.0 0.0 1.0 4.0 1.0 2.0 7.0 9.0 9.0 7.0 4.0 8.0 1.0 2.0 4.0 
3.0 10.0 1.0 8.0 6.0 10.0 8.0 1.0 8.0 0.0 10.0 7.0 5.0 4.0 6.0 5.0 0.0 5.0 -402.0 0.0 6.0 2.0 9.0 8.0 2.0 6.0 10.0 2.0 4.0 8.0 8.0 6.0 1.0 1.0 7.0 3.0 0.0 4.0 7.0 5.0 10.0 5.0 2.0 5.0 1.0 5.0 8.0 2.0 7.0 4.0 1.0 5.0 6.0 6.0 8.0 4.0 0.0 3.0 0.0 6.0 6.0 7.0 3.0 7.0 1.0 10.0 4.0 6.0 7.0 9.0 6.0 10.0 1.0 4.0 2.0 9.0 10.0 10.0 6.0 
10.0 6.0 2.0 4.0 6.0 10.0 5.0 4.0 10.0 4.0 0.0 10.0 1.0 1.0 10.0 10.0 3.0 9.0 0.0 -390.0 2.0 4.0 6.0 2.0 0.0 3.0 7.0 10.0 4.0 4.0 3.0 5.0 5.0 6.0 2.0 0.0 1.0 4.0 5.0 9.0 2.0 5.0 8.0 7.0 9.0 1.0 3.0 4.0 5.0 1.0 2.0 0.0 6.0 2.0 5.0 4.0 9.0 1.0 5.0 6.0 9.0 7.0 8.0 10.0 10.0 5.0 9.0 7.0 0.0 5.0 8.0 6.0 4.0 6.0 8.0 8.0 2.0 3.0 3.0 
1.0 8.0 7.0 1.0 2.0 0.0 9.0 4.0 3.0 7.0 2.0 6.0 5.0 4.0 6.0 1.0 4.0 6.0 6.0 2.0 -345.0 2.0 3.0 10.0 6.0 3.0 10.0 6.0 10.0 1.0 0.0 10.0 5.0 0.0 2.0 8.0 0.0 7.0 1.0 0.0 10.0 0.0 0.0 7.0 5.0 2.0 1.0 0.0 9.0 4.0 5.0 3.0 7.0 2.0 8.0 8.0 5.0 1.0 0.0 10.0 3.0 6.0 2.0 7.0 10.0 0.0 8.0 7.0 8.0 1.0 5.0 3.0 7.0 2.0 2.0 5.0 10.0 0.0 4.0 
7.0 5.0 10.0 2.0 10.0 7.0 10.0 6.0 6.0 2.0 2.0 7.0 3.0 3.0 5.0 4.0 5.0 6.0 2.0 4.0 2.0 -419.0 7.0 7.0 8.0 1.0 9.0 9.0 4.0 9.0 8.0 4.0 7.0 3.0 1.0 4.0 10.0 3.0 5.0 9.0 4.0 7.0 6.0 3.0 6.0 3.0 7.0 9.0 5.0 6.0 5.0 8.0 1.0 7.0 9.0 2.0 0.0 3.0 2.0 3.0 8.0 1.0 9.0 8.0 6.0 9.0 9.0 6.0 1.0 6.0 4.0 5.0 6.0 10.0 2.0 0.0 7.0 9.0 1.0 
1.0 9.0 10.0 4.0 6.0 4.0 1.0 4.0 8.0 5.0 1.0 6.0 7.0 4.0 1.0 10.0 4.0 6.0 9.0 6.0 3.0 7.0 -400.0 8.0 10.0 5.0 4.0 7.0 4.0 8.0 7.0 4.0 6.0 4.0 7.0 6.0 3.0 6.0 10.0 8.0 5.0 0.0 5.0 6.0 0.0 2.0 3.0 2.0 6.0 8.0 5.0 6.0 6.0 3.0 0.0 3.0 4.0 0.0 4.0 7.0 5.0 7.0 5.0 3.0 7.0 5.0 4.0 0.0 7.0 7.0 3.0 10.0 3.0 5.0 5.0 7.0 8.0 5.0 6.0 
8.0 4.0 6.0 8.0 4.0 2.0 8.0 2.0 2.0 6.0 7.0 8.0 2.0 8.0 6.0 9.0 8.0 8.0 8.0 2.0 10.0 7.0 8.0 -452.0 7.0 0.0 5.0 3.0 10.0 10.0 8.0 3.0 6.0 10.0 8.0 2.0 2.0 1.0 5.0 2.0 5.0 9.0 2.0 8.0 7.0 5.0 1.0 3.0 3.0 9.0 5.0 10.0 0.0 6.0 10.0 7.0 5.0 3.0 4.0 4.0 6.0 5.0 10.0 7.0 10.0 8.0 9.0 5.0 2.0 8.0 5.0 5.0 9.0 6.0 9.0 8.0 2.0 4.0 5.0 
2.0 2.0 3.0 4.0 0.0 5.0 0.0 6.0 1.0 6.0 2.0 1.0 0.0 10.0 5.0 9.0 0.0 8.0 2.0 0.0 6.0 8.0 10.0 7.0 -384.0 2.0 8.0 10.0 1.0 8.0 10.0 2.0 0.0 7.0 6.0 5.0 1.0 1.0 1.0 3.0 0.0 10.0 6.0 1.0 1.0 10.0 9.0 10.0 2.0 2.0 7.0 10.0 5.0 5.0 4.0 10.0 3.0 7.0 4.0 9.0 9.0 7.0 3.0 9.0 10.0 2.0 9.0 7.0 3.0 7.0 6.0 3.0 0.0 3.0 4.0 5.0 2.0 8.0 10.0 
5.0 2.0 1.0 8.0 5.0 2.0 6.0 5.0 2.0 0.0 0.0 10.0 6.0 7.0 5.0 1.0 2.0 0.0 6.0 3.0 3.0 1.0 5.0 0.0 2.0 -325.0 3.0 4.0 3.0 6.0 4.0 1.0 3.0 1.0 0.0 8.0 7.0 10.0 6.0 6.0 0.0 7.0 6.0 1.0 9.0 1.0 9.0 0.0 7.0 2.0 1.0 7.0 1.0 2.0 1.0 7.0 1.0 5.0 0.0 10.0 6.0 5.0 2.0 6.0 6.0 8.0 10.0 5.0 5.0 3.0 3.0 7.0 1.0 4.0 2.0 1.0 8.0 9.0 8.0 
6.0 5.0 5.0 0.0 10.0 1.0 4.0 9.0 8.0 6.0 6.0 6.0 3.0 4.0 10.0 9.0 9.0 4.0 10.0 7.0 10.0 9.0 4.0 5.0 8.0 3.0 -413.0 10.0 5.0 7.0 2.0 3.0 1.0 3.0 5.0 7.0 10.0 10.0 0.0 10.0 9.0 6.0 0.0 3.0 9.0 3.0 0.0 9.0 4.0 3.0 10.0 9.0 5.0 5.0 5.0 2.0 1.0 0.0 0.0 1.0 3.0 8.0 2.0 0.0 3.0 0.0 6.0 7.0 7.0 6.0 8.0 5.0 0.0 7.0 10.0 9.0 2.0 7.0 5.0 
2.0 3.0 3.0 10.0 5.0 6.0 4.0 0.0 0.0 7.0 7.0 6.0 10.0 6.0 5.0 1.0 8.0 5.0 2.0 10.0 6.0 9.0 7.0 3.0 10.0 4.0 10.0 -411.0 0.0 3.0 9.0 0.0 1.0 9.0 3.0 0.0 9.0 10.0 3.0 5.0 4.0 2.0 8.0 6.0 5.0 6.0 0.0 9.0 8.0 6.0 3.0 7.0 7.0 10.0 3.0 8.0 6.0 6.0 3.0 5.0 8.0 9.0 2.0 4.0 0.0 10.0 1.0 9.0 5.0 10.0 0.0 5.0 7.0 1.0 0.0 3.0 8.0 6.0 10.0 
6.0 2.0 7.0 9.0 0.0 6.0 6.0 6.0 1.0 10.0 1.0 10.0 0.0 3.0 0.0 2.0 7.0 0.0 4.0 4.0 10.0 4.0 4.0 10.0 1.0 3.0 5.0 0.0 -354.0 1.0 1.0 7.0 2.0 5.0 7.0 5.0 3.0 0.0 9.0 0.0 7.0 8.0 3.0 2.0 9.0 10.0 6.0 3.0 2.0 4.0 4.0 6.0 4.0 5.0 6.0 9.0 1.0 4.0 6.0 3.0 1.0 2.0 5.0 3.0 4.0 1.0 10.0 3.0 5.0 7.0 3.0 3.0 4.0 6.0 9.0 3.0 4.0 10.0 8.0 
5.0 9.0 3.0 7.0 8.0 5.0 6.0 0.0 3.0 4.0 1.0 9.0 4.0 3.0 0.0 10.0 5.0 9.0 8.0 4.0 1.0 9.0 8.0 10.0 8.0 6.0 7.0 3.0 1.0 -376.0 9.0 8.0 10.0 8.0 6.0 5.0 3.0 1.0 4.0 8.0 2.0 7.0 4.0 1.0 4.0 0.0 4.0 0.0 4.0 4.0 2.0 4.0 7.0 5.0 9.0 10.0 9.0 6.0 6.0 2.0 6.0 5.0 7.0 3.0 3.0 1.0 2.0 3.0 1.0 6.0 0.0 4.0 3.0 5.0 2.0 6.0 0.0 10.0 1.0 
3.0 10.0 9.0 7.0 6.0 8.0 10.0 0.0 3.0 4.0 3.0 1.0 5.0 3.0 3.0 7.0 2.0 7.0 8.0 3.0 0.0 8.0 7.0 8.0 10.0 4.0 2.0 9.0 1.0 9.0 -413.0 10.0 2.0 8.0 6.0 9.0 0.0 4.0 0.0 3.0 7.0 6.0 4.0 9.0 3.0 9.0 3.0 10.0 2.0 8.0 1.0 8.0 6.0 8.0 8.0 3.0 8.0 4.0 2.0 6.0 0.0 4.0 5.0 5.0 4.0 0.0 2.0 2.0 9.0 10.0 5.0 9.0 8.0 8.0 1.0 5.0 4.0 6.0 9.0 
7.0 5.0 0.0 6.0 0.0 10.0 10.0 1.0 0.0 6.0 10.0 2.0 8.0 9.0 3.0 1.0 9.0 2.0 6.0 5.0 10.0 4.0 4.0 3.0 2.0 1.0 3.0 0.0 7.0 8.0 10.0 -352.0 8.0 0.0 4.0 6.0 0.0 4.0 6.0 1.0 4.0 10.0 1.0 2.0 1.0 5.0 6.0 0.0 10.0 1.0 1.0 6.0 3.0 8.0 0.0 3.0 5.0 9.0 7.0 5.0 7.0 0.0 1.0 5.0 8.0 0.0 8.0 1.0 10.0 2.0 5.0 7.0 8.0 3.0 6.0 0.0 5.0 4.0 4.0 
6.0 5.0 7.0 2.0 3.0 1.0 2.0 8.0 1.0 6.0 3.0 10.0 6.0 7.0 2.0 0.0 4.0 9.0 1.0 5.0 5.0 7.0 6.0 6.0 0.0 3.0 1.0 1.0 2.0 10.0 2.0 8.0 -374.0 5.0 7.0 2.0 4.0 8.0 9.0 1.0 10.0 1.0 5.0 2.0 4.0 8.0 7.0 0.0 10.0 7.0 0.0 0.0 2.0 3.0 3.0 4.0 5.0 8.0 4.0 8.0 3.0 10.0 2.0 0.0 6.0 10.0 2.0 4.0 9.0 0.0 6.0 6.0 6.0 3.0 9.0 10.0 3.0 9.0 10.0 
8.0 9.0 4.0 9.0 7.0 1.0 5.0 8.0 10.0 4.0 3.0 8.0 5.0 1.0 9.0 0.0 4.0 0.0 1.0 6.0 0.0 3.0 4.0 10.0 7.0 1.0 3.0 9.0 5.0 8.0 8.0 0.0 5.0 -375.0 4.0 9.0 8.0 4.0 7.0 1.0 0.0 4.0 3.0 8.0 7.0 8.0 0.0 6.0 0.0 2.0 0.0 10.0 0.0 0.0 6.0 3.0 6.0 6.0 6.0 2.0 0.0 10.0 5.0 2.0 6.0 5.0 3.0 10.0 4.0 10.0 8.0 2.0 1.0 5.0 8.0 3.0 6.0 6.0 6.0 
1.0 10.0 2.0 6.0 2.0 5.0 7.0 9.0 1.0 1.0 8.0 0.0 5.0 3.0 0.0 2.0 0.0 0.0 7.0 2.0 2.0 1.0 7.0 8.0 6.0 0.0 5.0 3.0 7.0 6.0 6.0 4.0 7.0 4.0 -317.0 3.0 8.0 3.0 0.0 2.0 7.0 6.0 4.0 1.0 0.0 1.0 0.0 9.0 8.0 0.0 3.0 6.0 0.0 4.0 2.0 6.0 7.0 0.0 0.0 0.0 8.0 6.0 7.0 9.0 3.0 0.0 7.0 4.0 7.0 8.0 5.0 5.0 3.0 0.0 4.0 7.0 8.0 8.0 1.0 
0.0 1.0 1.0 4.0 9.0 9.0 2.0 1.0 2.0 7.0 9.0 2.0 7.0 3.0 10.0 7.0 5.0 0.0 3.0 0.0 8.0 4.0 6.0 2.0 5.0 8.0 7.0 0.0 5.0 5.0 9.0 6.0 2.0 9.0 3.0 -372.0 1.0 2.0 0.0 2.0 9.0 4.0 1.0 5.0 10.0 10.0 0.0 3.0 7.0 0.0 10.0 10.0 6.0 9.0 0.0 5.0 8.0 1.0 0.0 10.0 1.0 0.0 9.0 2.0 3.0 9.0 7.0 3.0 7.0 10.0 9.0 6.0 8.0 1.0 9.0 3.0 5.0 2.0 4.0 
3.0 1.0 7.0 10.0 2.0 5.0 8.0 8.0 2.0 10.0 6.0 3.0 0.0 6.0 4.0 10.0 2.0 8.0 0.0 1.0 0.0 10.0 3.0 2.0 1.0 7.0 10.0 9.0 3.0 3.0 0.0 0.0 4.0 8.0 8.0 1.0 -366.0 2.0 1.0 8.0 3.0 10.0 0.0 6.0 2.0 8.0 4.0 9.0 2.0 5.0 7.0 3.0 10.0 2.0 9.0 0.0 10.0 3.0 3.0 9.0 9.0 2.0 10.0 8.0 9.0 0.0 10.0 6.0 0.0 2.0 4.0 4.0 0.0 3.0 3.0 1.0 3.0 4.0 7.0 
8.0 6.0 3.0 7.0 7.0 7.0 4.0 6.0 5.0 2.0 7.0 6.0 0.0 2.0 6.0 9.0 9.0 0.0 4.0 4.0 7.0 3.0 6.0 1.0 1.0 10.0 10.0 10.0 0.0 1.0 4.0 4.0 8.0 4.0 3.0 2.0 2.0 -391.0 10.0 4.0 0.0 2.0 8.0 10.0 4.0 10.0 1.0 8.0 2.0 2.0 8.0 0.0 5.0 10.0 7.0 1.0 6.0 5.0 10.0 8.0 5.0 0.0 2.0 7.0 7.0 3.0 7.0 5.0 4.0 5.0 4.0 9.0 3.0 7.0 4.0 9.0 5.0 0.0 6.0 
7.0 7.0 7.0 1.0 7.0 0.0 8.0 5.0 2.0 1.0 2.0 0.0 5.0 0.0 6.0 8.0 10.0 7.0 7.0 5.0 1.0 5.0 10.0 5.0 1.0 6.0 0.0 3.0 9.0 4.0 0.0 6.0 9.0 7.0 0.0 0.0 1.0 10.0 -366.0 8.0 9.0 7.0 2.0 6.0 0.0 5.0 5.0 6.0 9.0 7.0 3.0 0.0 8.0 1.0 2.0 0.0 4.0 9.0 1.0 8.0 2.0 4.0 7.0 3.0 8.0 5.0 8.0 10.0 7.0 6.0 2.0 0.0 0.0 7.0 10.0 4.0 8.0 3.0 0.0 
8.0 7.0 9.0 9.0 6.0 7.0 2.0 2.0 9.0 5.0 1.0 2.0 9.0 4.0 2.0 3.0 7.0 9.0 5.0 9.0 0.0 9.0 8.0 2.0 3.0 6.0 10.0 5.0 0.0 8.0 3.0 1.0 1.0 1.0 2.0 2.0 8.0 4.0 8.0 -389.0 10.0 0.0 9.0 0.0 5.0 0.0 0.0 3.0 7.0 9.0 9.0 8.0 4.0 5.0 2.0 4.0 9.0 5.0 10.0 4.0 2.0 6.0 5.0 0.0 5.0 4.0 3.0 5.0 9.0 9.0 4.0 10.0 2.0 5.0 6.0 8.0 5.0 0.0 2.0 
2.0 7.0 3.0 5.0 0.0 2.0 1.0 7.0 7.0 1.0 1.0 7.0 5.0 0.0 7.0 5.0 6.0 10.0 10.0 2.0 10.0 4.0 5.0 5.0 0.0 0.0 9.0 4.0 7.0 2.0 7.0 4.0 10.0 0.0 7.0 9.0 3.0 0.0 9.0 10.0 -385.0 3.0 3.0 5.0 10.0 5.0 9.0 4.0 1.0 10.0 9.0 9.0 0.0 5.0 3.0 3.0 6.0 7.0 2.0 9.0 4.0 9.0 8.0 0.0 2.0 1.0 7.0 3.0 0.0 5.0 1.0 10.0 4.0 6.0 8.0 10.0 4.0 7.0 0.0 
8.0 4.0 9.0 10.0 5.0 5.0 1.0 1.0 10.0 0.0 2.0 4.0 10.0 9.0 1.0 3.0 3.0 4.0 5.0 5.0 0.0 7.0 0.0 9.0 10.0 7.0 6.0 2.0 8.0 7.0 6.0 10.0 1.0 4.0 6.0 4.0 10.0 2.0 7.0 0.0 3.0 -434.0 10.0 3.0 9.0 9.0 9.0 4.0 8.0 4.0 5.0 10.0 8.0 6.0 0.0 4.0 5.0 0.0 5.0 7.0 9.0 9.0 0.0 8.0 4.0 5.0 9.0 10.0 3.0 8.0 3.0 2.0 8.0 6.0 10.0 5.0 9.0 2.0 10.0 
2.0 8.0 4.0 10.0 2.0 0.0 0.0 2.0 1.0 2.0 9.0 5.0 1.0 3.0 1.0 4.0 1.0 8.0 2.0 8.0 0.0 6.0 5.0 2.0 6.0 6.0 0.0 8.0 3.0 4.0 4.0 1.0 5.0 3.0 4.0 1.0 0.0 8.0 2.0 9.0 3.0 10.0 -348.0 10.0 7.0 3.0 5.0 0.0 9.0 8.0 8.0 2.0 0.0 6.0 9.0 5.0 6.0 9.0 8.0 4.0 9.0 10.0 7.0 2.0 5.0 0.0 6.0 7.0 2.0 8.0 5.0 9.0 2.0 8.0 1.0 1.0 1.0 0.0 3.0 
1.0 4.0 7.0 7.0 4.0 6.0 8.0 10.0 2.0 2.0 1.0 8.0 3.0 10.0 1.0 6.0 3.0 10.0 5.0 7.0 7.0 3.0 6.0 8.0 1.0 1.0 3.0 6.0 2.0 1.0 9.0 2.0 2.0 8.0 1.0 5.0 6.0 10.0 6.0 0.0 5.0 3.0 10.0 -355.0 6.0 7.0 5.0 3.0 6.0 7.0 4.0 3.0 8.0 2.0 8.0 3.0 8.0 8.0 1.0 3.0 8.0 10.0 2.0 1.0 0.0 3.0 1.0 0.0 2.0 9.0 9.0 3.0 2.0 1.0 3.0 0.0 3.0 5.0 1.0 
0.0 7.0 9.0 8.0 8.0 7.0 5.0 10.0 7.0 1.0 8.0 4.0 3.0 0.0 9.0 0.0 6.0 1.0 1.0 9.0 5.0 6.0 0.0 7.0 1.0 9.0 9.0 5.0 9.0 4.0 3.0 1.0 4.0 7.0 0.0 10.0 2.0 4.0 0.0 5.0 10.0 9.0 7.0 6.0 -410.0 3.0 6.0 4.0 4.0 5.0 9.0 6.0 5.0 3.0 7.0 8.0 0.0 10.0 1.0 10.0 10.0 2.0 8.0 1.0 8.0 2.0 7.0 5.0 7.0 8.0 10.0 9.0 2.0 5.0 6.0 5.0 1.0 6.0 1.0 
2.0 4.0 5.0 0.0 0.0 3.0 4.0 1.0 6.0 9.0 2.0 2.0 6.0 4.0 1.0 5.0 1.0 5.0 5.0 1.0 2.0 3.0 2.0 5.0 10.0 1.0 3.0 6.0 10.0 0.0 9.0 5.0 8.0 8.0 1.0 10.0 8.0 10.0 5.0 0.0 5.0 9.0 3.0 7.0 3.0 -357.0 5.0 8.0 10.0 1.0 7.0 4.0 5.0 4.0 2.0 10.0 8.0 1.0 8.0 6.0 0.0 9.0 1.0 1.0 8.0 6.0 3.0 2.0 9.0 0.0 6.0 7.0 4.0 3.0 10.0 0.0 3.0 1.0 6.0 
3.0 10.0 1.0 9.0 6.0 4.0 3.0 2.0 7.0 6.0 4.0 6.0 7.0 7.0 9.0 7.0 7.0 2.0 8.0 3.0 1.0 7.0 3.0 1.0 9.0 9.0 0.0 0.0 6.0 4.0 3.0 6.0 7.0 0.0 0.0 0.0 4.0 1.0 5.0 0.0 9.0 9.0 5.0 5.0 6.0 5.0 -379.0 6.0 0.0 6.0 3.0 6.0 10.0 2.0 10.0 9.0 2.0 6.0 2.0 4.0 2.0 7.0 5.0 8.0 9.0 9.0 3.0 5.0 1.0 4.0 1.0 4.0 9.0 8.0 0.0 2.0 3.0 8.0 9.0 
10.0 10.0 7.0 0.0 0.0 7.0 4.0 5.0 3.0 6.0 9.0 5.0 6.0 9.0 10.0 10.0 3.0 1.0 2.0 4.0 0.0 9.0 2.0 3.0 10.0 0.0 9.0 9.0 3.0 0.0 10.0 0.0 0.0 6.0 9.0 3.0 9.0 8.0 6.0 3.0 4.0 4.0 0.0 3.0 4.0 8.0 6.0 -389.0 0.0 0.0 2.0 8.0 1.0 1.0 4.0 10.0 6.0 8.0 10.0 4.0 3.0 7.0 7.0 2.0 4.0 7.0 2.0 10.0 6.0 3.0 2.0 5.0 3.0 6.0 9.0 6.0 6.0 7.0 1.0 
9.0 9.0 7.0 6.0 1.0 1.0 7.0 10.0 7.0 8.0 7.0 1.0 9.0 5.0 7.0 2.0 3.0 1.0 7.0 5.0 9.0 5.0 6.0 3.0 2.0 7.0 4.0 8.0 2.0 4.0 2.0 10.0 10.0 0.0 8.0 7.0 2.0 2.0 9.0 7.0 1.0 8.0 9.0 6.0 4.0 10.0 0.0 0.0 -404.0 7.0 8.0 0.0 6.0 3.0 0.0 3.0 10.0 4.0 8.0 4.0 6.0 2.0 9.0 10.0 3.0 8.0 3.0 6.0 5.0 5.0 4.0 7.0 0.0 0.0 1.0 9.0 2.0 8.0 6.0 
7.0 3.0 4.0 6.0 10.0 8.0 2.0 7.0 0.0 0.0 3.0 5.0 7.0 9.0 8.0 1.0 9.0 2.0 4.0 1.0 4.0 6.0 8.0 9.0 2.0 2.0 3.0 6.0 4.0 4.0 8.0 1.0 7.0 2.0 0.0 0.0 5.0 2.0 7.0 9.0 10.0 4.0 8.0 7.0 5.0 1.0 6.0 0.0 7.0 -378.0 4.0 6.0 8.0 2.0 5.0 1.0 4.0 6.0 2.0 8.0 0.0 10.0 0.0 4.0 8.0 10.0 7.0 3.0 9.0 0.0 5.0 8.0 8.0 8.0 0.0 2.0 7.0 6.0 4.0 
2.0 8.0 5.0 6.0 8.0 5.0 0.0 8.0 9.0 1.0 5.0 7.0 1.0 7.0 6.0 3.0 8.0 7.0 1.0 2.0 5.0 5.0 5.0 5.0 7.0 1.0 10.0 3.0 4.0 2.0 1.0 1.0 0.0 0.0 3.0 10.0 7.0 8.0 3.0 9.0 9.0 5.0 8.0 4.0 9.0 7.0 3.0 2.0 8.0 4.0 -395.0 4.0 9.0 8.0 4.0 8.0 9.0 1.0 2.0 7.0 9.0 3.0 3.0 3.0 5.0 0.0 6.0 6.0 4.0 8.0 3.0 8.0 0.0 9.0 6.0 8.0 4.0 4.0 7.0 
6.0 10.0 9.0 10.0 0.0 2.0 6.0 0.0 0.0 10.0 9.0 10.0 7.0 0.0 0.0 5.0 5.0 7.0 5.0 0.0 3.0 8.0 6.0 10.0 10.0 7.0 9.0 7.0 6.0 4.0 8.0 6.0 0.0 10.0 6.0 10.0 3.0 0.0 0.0 8.0 9.0 10.0 2.0 3.0 6.0 4.0 6.0 8.0 0.0 6.0 4.0 -385.0 9.0 9.0 0.0 2.0 5.0 2.0 1.0 0.0 6.0 2.0 0.0 3.0 2.0 5.0 0.0 8.0 9.0 4.0 3.0 9.0 1.0 3.0 4.0 1.0 0.0 8.0 9.0 
10.0 2.0 2.0 9.0 7.0 10.0 5.0 4.0 9.0 2.0 10.0 0.0 5.0 0.0 0.0 1.0 4.0 3.0 6.0 6.0 7.0 1.0 6.0 0.0 5.0 1.0 5.0 7.0 4.0 7.0 6.0 3.0 2.0 0.0 0.0 6.0 10.0 5.0 8.0 4.0 0.0 8.0 0.0 8.0 5.0 5.0 10.0 1.0 6.0 8.0 9.0 9.0 -396.0 4.0 6.0 6.0 9.0 7.0 3.0 5.0 8.0 5.0 0.0 8.0 6.0 8.0 5.0 7.0 6.0 9.0 1.0 5.0 6.0 9.0 1.0 2.0 10.0 1.0 8.0 
7.0 6.0 3.0 0.0 5.0 10.0 0.0 9.0 6.0 2.0 2.0 6.0 2.0 8.0 0.0 7.0 6.0 6.0 6.0 2.0 2.0 7.0 3.0 6.0 5.0 2.0 5.0 10.0 5.0 5.0 8.0 8.0 3.0 0.0 4.0 9.0 2.0 10.0 1.0 5.0 5.0 6.0 6.0 2.0 3.0 4.0 2.0 1.0 3.0 2.0 8.0 9.0 4.0 -382.0 9.0 10.0 1.0 4.0 10.0 9.0 10.0 6.0 10.0 8.0 4.0 3.0 6.0 0.0 0.0 4.0 9.0 8.0 0.0 0.0 4.0 5.0 2.0 5.0 7.0 
0.0 2.0 7.0 1.0 4.0 6.0 10.0 1.0 4.0 10.0 6.0 1.0 5.0 9.0 8.0 2.0 7.0 7.0 8.0 5.0 8.0 9.0 0.0 10.0 4.0 1.0 5.0 3.0 6.0 9.0 8.0 0.0 3.0 6.0 2.0 0.0 9.0 7.0 2.0 2.0 3.0 0.0 9.0 8.0 7.0 2.0 10.0 4.0 0.0 5.0 4.0 0.0 6.0 9.0 -399.0 1.0 3.0 2.0 5.0 10.0 6.0 10.0 9.0 9.0 6.0 7.0 2.0 6.0 10.0 5.0 5.0 0.0 9.0 4.0 1.0 6.0 5.0 4.0 10.0 
2.0 9.0 9.0 7.0 4.0 10.0 3.0 7.0 4.0 10.0 5.0 3.0 10.0 7.0 4.0 5.0 9.0 6.0 4.0 4.0 8.0 2.0 3.0 7.0 10.0 7.0 2.0 8.0 9.0 10.0 3.0 3.0 4.0 3.0 6.0 5.0 0.0 1.0 0.0 4.0 3.0 4.0 5.0 3.0 8.0 10.0 9.0 10.0 3.0 1.0 8.0 2.0 6.0 10.0 1.0 -429.0 5.0 0.0 8.0 7.0 4.0 7.0 4.0 10.0 1.0 3.0 9.0 7.0 9.0 6.0 10.0 2.0 8.0 1.0 4.0 0.0 10.0 7.0 7.0 
5.0 8.0 1.0 5.0 2.0 9.0 8.0 3.0 6.0 7.0 0.0 9.0 2.0 8.0 6.0 10.0 6.0 6.0 0.0 9.0 5.0 0.0 4.0 5.0 3.0 1.0 1.0 6.0 1.0 9.0 8.0 5.0 5.0 6.0 7.0 8.0 10.0 6.0 4.0 9.0 6.0 5.0 6.0 8.0 0.0 8.0 2.0 6.0 10.0 4.0 9.0 5.0 9.0 1.0 3.0 5.0 -425.0 4.0 6.0 1.0 10.0 3.0 5.0 10.0 6.0 8.0 5.0 10.0 8.0 8.0 1.0 10.0 7.0 10.0 0.0 4.0 3.0 5.0 1.0 
8.0 6.0 7.0 5.0 1.0 5.0 5.0 1.0 1.0 4.0 5.0 2.0 7.0 6.0 9.0 4.0 2.0 3.0 3.0 1.0 1.0 3.0 0.0 3.0 7.0 5.0 0.0 6.0 4.0 6.0 4.0 9.0 8.0 6.0 0.0 1.0 3.0 5.0 9.0 5.0 7.0 0.0 9.0 8.0 10.0 1.0 6.0 8.0 4.0 6.0 1.0 2.0 7.0 4.0 2.0 0.0 4.0 -365.0 5.0 10.0 10.0 7.0 7.0 3.0 10.0 2.0 7.0 6.0 3.0 2.0 4.0 3.0 1.0 9.0 8.0 9.0 1.0 8.0 1.0 
5.0 6.0 4.0 2.0 4.0 6.0 1.0 3.0 3.0 1.0 4.0 5.0 7.0 7.0 10.0 8.0 7.0 0.0 0.0 5.0 0.0 2.0 4.0 4.0 4.0 0.0 0.0 3.0 6.0 6.0 2.0 7.0 4.0 6.0 0.0 0.0 3.0 10.0 1.0 10.0 2.0 5.0 8.0 1.0 1.0 8.0 2.0 10.0 8.0 2.0 2.0 1.0 3.0 10.0 5.0 8.0 6.0 5.0 -350.0 5.0 8.0 6.0 2.0 5.0 2.0 3.0 9.0 1.0 10.0 7.0 6.0 1.0 0.0 3.0 10.0 4.0 10.0 6.0 5.0 
2.0 3.0 5.0 10.0 10.0 1.0 9.0 8.0 0.0 3.0 3.0 2.0 1.0 8.0 8.0 6.0 8.0 7.0 6.0 6.0 10.0 3.0 7.0 4.0 9.0 10.0 1.0 5.0 3.0 2.0 6.0 5.0 8.0 2.0 0.0 10.0 9.0 8.0 8.0 4.0 9.0 7.0 4.0 3.0 10.0 6.0 4.0 4.0 4.0 8.0 7.0 0.0 5.0 9.0 10.0 7.0 1.0 10.0 5.0 -432.0 10.0 1.0 1.0 8.0 10.0 3.0 1.0 7.0 6.0 6.0 10.0 5.0 7.0 10.0 0.0 6.0 7.0 0.0 1.0 
5.0 5.0 5.0 6.0 10.0 10.0 5.0 9.0 8.0 8.0 2.0 7.0 0.0 5.0 3.0 4.0 8.0 5.0 6.0 9.0 3.0 8.0 5.0 6.0 9.0 6.0 3.0 8.0 1.0 6.0 0.0 7.0 3.0 0.0 8.0 1.0 9.0 5.0 2.0 2.0 4.0 9.0 9.0 8.0 10.0 0.0 2.0 3.0 6.0 0.0 9.0 6.0 8.0 10.0 6.0 4.0 10.0 10.0 8.0 10.0 -430.0 4.0 9.0 2.0 9.0 3.0 8.0 2.0 1.0 8.0 3.0 6.0 2.0 9.0 2.0 3.0 7.0 1.0 7.0 
4.0 10.0 2.0 10.0 1.0 8.0 1.0 8.0 9.0 0.0 1.0 10.0 9.0 5.0 5.0 2.0 6.0 3.0 7.0 7.0 6.0 1.0 7.0 5.0 7.0 5.0 8.0 9.0 2.0 5.0 4.0 0.0 10.0 10.0 6.0 0.0 2.0 0.0 4.0 6.0 9.0 9.0 10.0 10.0 2.0 9.0 7.0 7.0 2.0 10.0 3.0 2.0 5.0 6.0 10.0 7.0 3.0 7.0 6.0 1.0 4.0 -413.0 8.0 6.0 0.0 2.0 3.0 2.0 3.0 5.0 0.0 1.0 10.0 7.0 9.0 4.0 9.0 9.0 1.0 
10.0 9.0 5.0 1.0 9.0 4.0 1.0 9.0 1.0 6.0 0.0 3.0 9.0 1.0 1.0 10.0 8.0 1.0 3.0 8.0 2.0 9.0 5.0 10.0 3.0 2.0 2.0 2.0 5.0 7.0 5.0 1.0 2.0 5.0 7.0 9.0 10.0 2.0 7.0 5.0 8.0 0.0 7.0 2.0 8.0 1.0 5.0 7.0 9.0 0.0 3.0 0.0 0.0 10.0 9.0 4.0 5.0 7.0 2.0 1.0 9.0 8.0 -392.0 0.0 8.0 2.0 6.0 9.0 1.0 3.0 8.0 9.0 1.0 10.0 7.0 3.0 5.0 9.0 7.0 
10.0 9.0 9.0 8.0 6.0 3.0 7.0 2.0 2.0 0.0 6.0 1.0 6.0 5.0 4.0 0.0 1.0 5.0 7.0 10.0 7.0 8.0 3.0 7.0 9.0 6.0 0.0 4.0 3.0 3.0 5.0 5.0 0.0 2.0 9.0 2.0 8.0 7.0 3.0 0.0 0.0 8.0 2.0 1.0 1.0 1.0 8.0 2.0 10.0 4.0 3.0 3.0 8.0 8.0 9.0 10.0 10.0 3.0 5.0 8.0 2.0 6.0 0.0 -363.0 4.0 0.0 6.0 5.0 1.0 2.0 7.0 1.0 5.0 5.0 9.0 7.0 2.0 5.0 0.0 
10.0 2.0 9.0 8.0 0.0 3.0 8.0 4.0 10.0 5.0 7.0 10.0 6.0 3.0 8.0 1.0 5.0 5.0 1.0 10.0 10.0 6.0 7.0 10.0 10.0 6.0 3.0 0.0 4.0 3.0 4.0 8.0 6.0 6.0 3.0 3.0 9.0 7.0 8.0 5.0 2.0 4.0 5.0 0.0 8.0 8.0 9.0 4.0 3.0 8.0 5.0 2.0 6.0 4.0 6.0 1.0 6.0 10.0 2.0 10.0 9.0 0.0 8.0 4.0 -411.0 0.0 7.0 8.0 8.0 6.0 0.0 7.0 6.0 0.0 7.0 1.0 0.0 0.0 4.0 
4.0 7.0 9.0 6.0 9.0 10.0 2.0 2.0 10.0 9.0 5.0 0.0 0.0 4.0 10.0 4.0 10.0 0.0 10.0 5.0 0.0 9.0 5.0 8.0 2.0 8.0 0.0 10.0 1.0 1.0 0.0 0.0 10.0 5.0 0.0 9.0 0.0 3.0 5.0 4.0 1.0 5.0 0.0 3.0 2.0 6.0 9.0 7.0 8.0 10.0 0.0 5.0 8.0 3.0 7.0 3.0 8.0 2.0 3.0 3.0 3.0 2.0 2.0 0.0 0.0 -357.0 7.0 6.0 4.0 2.0 6.0 1.0 3.0 7.0 3.0 1.0 8.0 7.0 6.0 
4.0 4.0 1.0 9.0 3.0 10.0 10.0 3.0 4.0 5.0 6.0 7.0 6.0 1.0 9.0 1.0 5.0 1.0 4.0 9.0 8.0 9.0 4.0 9.0 9.0 10.0 6.0 1.0 10.0 2.0 2.0 8.0 2.0 3.0 7.0 7.0 10.0 7.0 8.0 3.0 7.0 9.0 6.0 1.0 7.0 3.0 3.0 2.0 3.0 7.0 6.0 0.0 5.0 6.0 2.0 9.0 5.0 7.0 9.0 1.0 8.0 3.0 6.0 6.0 7.0 7.0 -414.0 0.0 7.0 2.0 3.0 8.0 2.0 1.0 3.0 7.0 6.0 6.0 7.0 
9.0 5.0 9.0 3.0 1.0 2.0 9.0 8.0 5.0 5.0 6.0 7.0 10.0 0.0 10.0 10.0 2.0 4.0 6.0 7.0 7.0 6.0 0.0 5.0 7.0 5.0 7.0 9.0 3.0 3.0 2.0 1.0 4.0 10.0 4.0 3.0 6.0 5.0 10.0 5.0 3.0 10.0 7.0 0.0 5.0 2.0 5.0 10.0 6.0 3.0 6.0 8.0 7.0 0.0 6.0 7.0 10.0 6.0 1.0 7.0 2.0 2.0 9.0 5.0 8.0 6.0 0.0 -404.0 3.0 5.0 1.0 9.0 10.0 0.0 0.0 0.0 8.0 1.0 6.0 
6.0 5.0 4.0 5.0 0.0 3.0 4.0 7.0 0.0 7.0 6.0 0.0 7.0 3.0 4.0 7.0 9.0 1.0 7.0 0.0 8.0 1.0 7.0 2.0 3.0 5.0 7.0 5.0 5.0 1.0 9.0 10.0 9.0 4.0 7.0 7.0 0.0 4.0 7.0 9.0 0.0 3.0 2.0 2.0 7.0 9.0 1.0 6.0 5.0 9.0 4.0 9.0 6.0 0.0 10.0 9.0 8.0 3.0 10.0 6.0 1.0 3.0 1.0 1.0 8.0 4.0 7.0 3.0 -371.0 3.0 10.0 4.0 3.0 0.0 7.0 2.0 1.0 2.0 7.0 
4.0 7.0 4.0 0.0 0.0 6.0 2.0 10.0 0.0 2.0 2.0 3.0 9.0 3.0 2.0 2.0 9.0 2.0 9.0 5.0 1.0 6.0 7.0 8.0 7.0 3.0 6.0 10.0 7.0 6.0 10.0 2.0 0.0 10.0 8.0 10.0 2.0 5.0 6.0 9.0 5.0 8.0 8.0 9.0 8.0 0.0 4.0 3.0 5.0 0.0 8.0 4.0 9.0 4.0 5.0 6.0 8.0 2.0 7.0 6.0 8.0 5.0 3.0 2.0 6.0 2.0 2.0 5.0 3.0 -385.0 5.0 0.0 3.0 7.0 3.0 2.0 3.0 6.0 7.0 
9.0 6.0 2.0 5.0 3.0 3.0 9.0 8.0 1.0 10.0 3.0 3.0 5.0 1.0 2.0 1.0 8.0 7.0 6.0 8.0 5.0 4.0 3.0 5.0 6.0 3.0 8.0 0.0 3.0 0.0 5.0 5.0 6.0 8.0 5.0 9.0 4.0 4.0 2.0 4.0 1.0 3.0 5.0 9.0 10.0 6.0 1.0 2.0 4.0 5.0 3.0 3.0 1.0 9.0 5.0 10.0 1.0 4.0 6.0 10.0 3.0 0.0 8.0 7.0 0.0 6.0 3.0 1.0 10.0 5.0 -365.0 4.0 9.0 4.0 9.0 6.0 0.0 2.0 1.0 
6.0 5.0 5.0 3.0 9.0 6.0 2.0 6.0 7.0 9.0 9.0 9.0 8.0 0.0 10.0 5.0 2.0 9.0 10.0 6.0 3.0 5.0 10.0 5.0 3.0 7.0 5.0 5.0 3.0 4.0 9.0 7.0 6.0 2.0 5.0 6.0 4.0 9.0 0.0 10.0 10.0 2.0 9.0 3.0 9.0 7.0 4.0 5.0 7.0 8.0 8.0 9.0 5.0 8.0 0.0 2.0 10.0 3.0 1.0 5.0 6.0 1.0 9.0 1.0 7.0 1.0 8.0 9.0 4.0 0.0 4.0 -416.0 0.0 0.0 4.0 0.0 2.0 9.0 2.0 
4.0 6.0 9.0 9.0 7.0 10.0 6.0 0.0 2.0 9.0 2.0 1.0 0.0 6.0 10.0 2.0 3.0 9.0 1.0 4.0 7.0 6.0 3.0 9.0 0.0 1.0 0.0 7.0 4.0 3.0 8.0 8.0 6.0 1.0 3.0 8.0 0.0 3.0 0.0 2.0 4.0 8.0 2.0 2.0 2.0 4.0 9.0 3.0 0.0 8.0 0.0 1.0 6.0 0.0 9.0 8.0 7.0 1.0 0.0 7.0 2.0 10.0 1.0 5.0 6.0 3.0 2.0 10.0 3.0 3.0 9.0 0.0 -350.0 8.0 6.0 5.0 4.0 7.0 6.0 
6.0 4.0 0.0 4.0 4.0 0.0 6.0 7.0 3.0 1.0 6.0 8.0 10.0 6.0 8.0 3.0 5.0 7.0 4.0 6.0 2.0 10.0 5.0 6.0 3.0 4.0 7.0 1.0 6.0 5.0 8.0 3.0 3.0 5.0 0.0 1.0 3.0 7.0 7.0 5.0 6.0 6.0 8.0 1.0 5.0 3.0 8.0 6.0 0.0 8.0 9.0 3.0 9.0 0.0 4.0 1.0 10.0 9.0 3.0 10.0 9.0 7.0 10.0 5.0 0.0 7.0 1.0 0.0 0.0 7.0 4.0 0.0 8.0 -371.0 9.0 4.0 0.0 0.0 2.0 
2.0 0.0 5.0 10.0 10.0 9.0 9.0 3.0 2.0 10.0 9.0 4.0 6.0 2.0 1.0 1.0 8.0 4.0 2.0 8.0 2.0 2.0 5.0 9.0 4.0 2.0 10.0 0.0 9.0 2.0 1.0 6.0 9.0 8.0 4.0 9.0 3.0 4.0 10.0 6.0 8.0 10.0 1.0 3.0 6.0 10.0 0.0 9.0 1.0 0.0 6.0 4.0 1.0 4.0 1.0 4.0 0.0 8.0 10.0 0.0 2.0 9.0 7.0 9.0 7.0 3.0 3.0 0.0 7.0 3.0 9.0 4.0 6.0 9.0 -396.0 8.0 0.0 8.0 6.0 
4.0 0.0 1.0 2.0 3.0 2.0 4.0 3.0 4.0 9.0 7.0 10.0 7.0 5.0 8.0 7.0 6.0 8.0 9.0 8.0 5.0 0.0 7.0 8.0 5.0 1.0 9.0 3.0 3.0 6.0 5.0 0.0 10.0 3.0 7.0 3.0 1.0 9.0 4.0 8.0 10.0 5.0 1.0 0.0 5.0 0.0 2.0 6.0 9.0 2.0 8.0 1.0 2.0 5.0 6.0 0.0 4.0 9.0 4.0 6.0 3.0 4.0 3.0 7.0 1.0 1.0 7.0 0.0 2.0 2.0 6.0 0.0 5.0 4.0 8.0 -359.0 9.0 6.0 2.0 
8.0 0.0 5.0 10.0 9.0 6.0 2.0 8.0 5.0 7.0 6.0 10.0 6.0 1.0 3.0 8.0 9.0 1.0 10.0 2.0 10.0 7.0 8.0 2.0 2.0 8.0 2.0 8.0 4.0 0.0 4.0 5.0 3.0 6.0 8.0 5.0 3.0 5.0 8.0 5.0 4.0 9.0 1.0 3.0 1.0 3.0 3.0 6.0 2.0 7.0 4.0 0.0 10.0 2.0 5.0 10.0 3.0 1.0 10.0 7.0 7.0 9.0 5.0 2.0 0.0 8.0 6.0 8.0 1.0 3.0 0.0 2.0 4.0 0.0 0.0 9.0 -378.0 3.0 1.0 
3.0 0.0 7.0 10.0 7.0 1.0 9.0 0.0 4.0 6.0 8.0 1.0 0.0 7.0 4.0 2.0 4.0 2.0 10.0 3.0 0.0 9.0 5.0 4.0 8.0 9.0 7.0 6.0 10.0 10.0 6.0 4.0 9.0 6.0 8.0 2.0 4.0 0.0 3.0 0.0 7.0 2.0 0.0 5.0 6.0 1.0 8.0 7.0 8.0 6.0 4.0 8.0 1.0 5.0 4.0 7.0 5.0 8.0 6.0 0.0 1.0 9.0 9.0 5.0 0.0 7.0 6.0 1.0 2.0 6.0 2.0 9.0 7.0 0.0 8.0 6.0 3.0 -387.0 10.0 
4.0 0.0 4.0 9.0 9.0 9.0 7.0 5.0 6.0 6.0 0.0 1.0 0.0 1.0 6.0 10.0 10.0 4.0 6.0 3.0 4.0 1.0 6.0 5.0 10.0 8.0 5.0 10.0 8.0 1.0 9.0 4.0 10.0 6.0 1.0 4.0 7.0 6.0 0.0 2.0 0.0 10.0 3.0 1.0 1.0 6.0 9.0 1.0 6.0 4.0 7.0 9.0 8.0 7.0 10.0 7.0 1.0 1.0 5.0 1.0 7.0 1.0 7.0 0.0 4.0 6.0 7.0 6.0 7.0 7.0 1.0 2.0 6.0 2.0 6.0 2.0 1.0 10.0 -386.0 

